DIMENSION: 7
EDGE_WEIGHT_TYPE: EXPLICIT
EDGE_WEIGHT_FORMAT: FULL_MATRIX
EDGE_WEIGHT_SECTION:
32767 32767 59 91 24 32767 32767 
32767 32767 34 32767 97 32767 99 
59 34 32767 32767 32767 32767 76 
91 32767 32767 32767 32767 32767 58 
24 97 32767 32767 32767 5 32767 
32767 32767 32767 32767 5 32767 32767 
32767 99 76 58 32767 32767 32767 
EOF